NAME : kleinezf\2a3b4c.knd
COMMENT : 
TYPE : CVRP
DIMENSION : 201
EDGE_WEIGHT_TYPE : EUC_2D
CAPACITY : 10100
CAPACITY_VOL : 50
NODE_COORD_TYPE : TWOD_COORDS
NODE_COORD_SECTION
1 23452 56766
2 24981 56524
3 24727 55912
4 24513 55646
5 23931 55292
6 23544 58301
7 24989 56615
8 24962 56723
9 24700 55960
10 23564 55267
11 24402 57910
12 23217 55290
13 24012 58157
14 24159 55481
15 24675 55942
16 23292 55300
17 24005 55379
18 23614 55305
19 23757 55329
20 23481 55299
21 23174 55328
22 24019 55426
23 23922 55396
24 24625 55935
25 23975 55406
26 24228 55564
27 24625 55935
28 23760 55356
29 23951 55420
30 23532 55347
31 23984 55453
32 24724 56147
33 24594 57549
34 24002 55471
35 24287 57879
36 24330 55680
37 24337 55689
38 23092 55416
39 24097 55563
40 24469 55833
41 23121 55428
42 24118 55579
43 24144 55598
44 24023 55522
45 24426 55820
46 23019 55479
47 23019 55479
48 23938 55491
49 24572 57504
50 24122 57924
51 24240 55695
52 23881 55489
53 24190 55662
54 23987 55529
55 23191 55456
56 24120 55625
57 23470 55448
58 23214 55482
59 24737 56600
60 22999 55545
61 23214 55482
62 24197 55729
63 22974 55563
64 22974 55563
65 24290 55781
66 24233 55741
67 24708 56453
68 23629 55502
69 24249 55766
70 24294 55815
71 24377 55894
72 24226 55754
73 23777 57999
74 23777 57999
75 24630 56317
76 23829 55571
77 24110 55726
78 23573 55542
79 24334 55915
80 23410 55543
81 23767 55585
82 23851 55627
83 23582 55584
84 23826 55645
85 24590 56416
86 23277 55606
87 24172 55845
88 24242 55896
89 23748 55625
90 24324 55986
91 24111 55810
92 24337 56037
93 23088 55688
94 24255 55974
95 24167 55906
96 24023 55812
97 24167 55906
98 23901 55730
99 24293 56051
100 24293 56051
101 23652 57853
102 23562 55684
103 23765 55701
104 23867 57781
105 24162 55938
106 24095 55906
107 24210 57532
108 24095 55906
109 23533 55693
110 23588 55702
111 23190 55723
112 24501 56884
113 23556 55713
114 24424 57151
115 24313 56188
116 23562 55754
117 24233 56129
118 24233 56129
119 23835 55833
120 23875 57678
121 23341 55786
122 23222 55796
123 23997 55949
124 23592 55798
125 23244 55801
126 23984 55970
127 24418 56792
128 23483 55802
129 23706 55837
130 23301 55814
131 23934 55949
132 24229 56252
133 24229 56252
134 24229 56252
135 24229 56252
136 24229 56252
137 24229 56252
138 24258 56304
139 24040 56043
140 24040 56043
141 24191 56210
142 24104 56104
143 24122 57390
144 24363 56594
145 23702 57657
146 24120 56156
147 24029 56076
148 24110 56161
149 23519 55875
150 23670 55893
151 24180 57250
152 24138 56215
153 23417 55896
154 23392 55909
155 23951 56082
156 24013 56129
157 24038 56185
158 24038 56185
159 22938 57412
160 23788 56004
161 24214 57048
162 23980 56184
163 23887 57409
164 24146 57030
165 23609 56050
166 23007 57303
167 23660 56105
168 23577 57434
169 23038 57291
170 23296 56114
171 24051 57057
172 23163 56220
173 23827 56338
174 22977 56493
175 23939 56998
176 23685 57245
177 23884 56491
178 22965 56602
179 23828 57117
180 23093 56414
181 23288 56294
182 23288 56294
183 23288 56294
184 23793 56432
185 23122 56617
186 23777 56905
187 23800 56781
188 23426 57089
189 23620 57021
190 23710 56907
191 23744 56811
192 23303 57012
193 23674 56955
194 23598 57007
195 23302 56572
196 23540 56536
197 23296 56602
198 23400 56586
199 23587 56877
200 23370 56882
201 23564 56757
DEMAND_SECTION
1 0 0
2 880 0
3 720 0
4 850 0
5 590 0
6 500 0
7 470 0
8 400 0
9 720 0
10 730 0
11 140 0
12 650 0
13 290 0
14 370 0
15 230 0
16 310 0
17 480 0
18 260 0
19 370 0
20 340 0
21 220 0
22 640 0
23 650 0
24 790 0
25 150 0
26 710 0
27 140 0
28 570 0
29 260 0
30 880 0
31 470 0
32 860 0
33 340 0
34 650 0
35 290 0
36 420 0
37 990 0
38 820 0
39 420 0
40 980 0
41 490 0
42 590 0
43 150 0
44 410 0
45 870 0
46 200 0
47 460 0
48 610 0
49 540 0
50 710 0
51 560 0
52 330 0
53 590 0
54 390 0
55 580 0
56 600 0
57 650 0
58 720 0
59 650 0
60 540 0
61 600 0
62 500 0
63 670 0
64 260 0
65 250 0
66 130 0
67 370 0
68 490 0
69 320 0
70 370 0
71 340 0
72 490 0
73 580 0
74 750 0
75 130 0
76 480 0
77 130 0
78 450 0
79 250 0
80 260 0
81 310 0
82 780 0
83 780 0
84 680 0
85 720 0
86 290 0
87 730 0
88 610 0
89 930 0
90 110 0
91 340 0
92 750 0
93 770 0
94 370 0
95 800 0
96 970 0
97 640 0
98 260 0
99 850 0
100 920 0
101 990 0
102 710 0
103 410 0
104 140 0
105 700 0
106 350 0
107 640 0
108 520 0
109 680 0
110 220 0
111 790 0
112 870 0
113 740 0
114 780 0
115 760 0
116 140 0
117 710 0
118 290 0
119 130 0
120 280 0
121 270 0
122 970 0
123 840 0
124 880 0
125 210 0
126 620 0
127 570 0
128 790 0
129 150 0
130 560 0
131 440 0
132 520 0
133 730 0
134 160 0
135 880 0
136 300 0
137 230 0
138 750 0
139 510 0
140 580 0
141 470 0
142 520 0
143 670 0
144 690 0
145 330 0
146 810 0
147 900 0
148 580 0
149 910 0
150 250 0
151 330 0
152 600 0
153 350 0
154 630 0
155 590 0
156 960 0
157 410 0
158 510 0
159 390 0
160 380 0
161 700 0
162 100 0
163 840 0
164 150 0
165 460 0
166 370 0
167 470 0
168 390 0
169 550 0
170 330 0
171 150 0
172 780 0
173 850 0
174 830 0
175 600 0
176 680 0
177 880 0
178 820 0
179 110 0
180 470 0
181 690 0
182 610 0
183 750 0
184 780 0
185 380 0
186 850 0
187 760 0
188 290 0
189 670 0
190 550 0
191 600 0
192 210 0
193 480 0
194 550 0
195 820 0
196 810 0
197 840 0
198 270 0
199 150 0
200 760 0
201 980 0
PICKUP_SECTION
1 0 0
2 260 0
3 820 0
4 460 0
5 840 0
6 530 0
7 240 0
8 150 0
9 730 0
10 710 0
11 650 0
12 970 0
13 470 0
14 500 0
15 950 0
16 610 0
17 620 0
18 200 0
19 430 0
20 620 0
21 630 0
22 600 0
23 500 0
24 410 0
25 720 0
26 650 0
27 320 0
28 320 0
29 980 0
30 700 0
31 740 0
32 570 0
33 470 0
34 260 0
35 600 0
36 190 0
37 210 0
38 130 0
39 800 0
40 160 0
41 760 0
42 850 0
43 850 0
44 260 0
45 880 0
46 400 0
47 930 0
48 610 0
49 140 0
50 900 0
51 190 0
52 570 0
53 340 0
54 200 0
55 480 0
56 380 0
57 260 0
58 700 0
59 640 0
60 300 0
61 910 0
62 720 0
63 290 0
64 620 0
65 270 0
66 370 0
67 390 0
68 700 0
69 950 0
70 150 0
71 930 0
72 520 0
73 900 0
74 780 0
75 770 0
76 150 0
77 440 0
78 520 0
79 700 0
80 540 0
81 970 0
82 590 0
83 140 0
84 720 0
85 970 0
86 720 0
87 100 0
88 470 0
89 160 0
90 790 0
91 660 0
92 700 0
93 490 0
94 240 0
95 370 0
96 650 0
97 560 0
98 370 0
99 620 0
100 960 0
101 460 0
102 200 0
103 520 0
104 520 0
105 420 0
106 770 0
107 370 0
108 390 0
109 510 0
110 560 0
111 760 0
112 720 0
113 430 0
114 330 0
115 510 0
116 790 0
117 840 0
118 890 0
119 730 0
120 100 0
121 210 0
122 370 0
123 870 0
124 830 0
125 810 0
126 420 0
127 170 0
128 280 0
129 510 0
130 860 0
131 960 0
132 260 0
133 810 0
134 710 0
135 110 0
136 140 0
137 570 0
138 630 0
139 470 0
140 840 0
141 780 0
142 580 0
143 560 0
144 140 0
145 380 0
146 670 0
147 600 0
148 410 0
149 880 0
150 950 0
151 130 0
152 330 0
153 660 0
154 570 0
155 330 0
156 150 0
157 110 0
158 650 0
159 620 0
160 120 0
161 200 0
162 960 0
163 680 0
164 500 0
165 970 0
166 560 0
167 640 0
168 730 0
169 980 0
170 750 0
171 920 0
172 430 0
173 230 0
174 760 0
175 490 0
176 270 0
177 560 0
178 480 0
179 640 0
180 620 0
181 410 0
182 660 0
183 420 0
184 240 0
185 720 0
186 340 0
187 420 0
188 240 0
189 840 0
190 470 0
191 390 0
192 130 0
193 840 0
194 330 0
195 580 0
196 210 0
197 550 0
198 920 0
199 420 0
200 170 0
201 950 0
TIME_WINDOW_SECTION
2  7:00 18:00
3  7:00 18:00
4  7:00 18:00
5  7:00 18:00
6  7:00 18:00
7  7:00 18:00
8  7:00 18:00
9  7:00 18:00
10  7:00 18:00
11  7:00 18:00
12  7:00 18:00
13  7:00 18:00
14  7:00 18:00
15  7:00 18:00
16  7:00 18:00
17  7:00 18:00
18  7:00 18:00
19  7:00 18:00
20  7:00 18:00
21  7:00 18:00
22  7:00 18:00
23  7:00 18:00
24  7:00 18:00
25  7:00 18:00
26  7:00 18:00
27  7:00 18:00
28  7:00 18:00
29  7:00 18:00
30  7:00 18:00
31  7:00 18:00
32  7:00 18:00
33  7:00 18:00
34  7:00 18:00
35  7:00 18:00
36  7:00 18:00
37  7:00 18:00
38  7:00 18:00
39  7:00 18:00
40  7:00 18:00
41  7:00 18:00
42  7:00 18:00
43  7:00 18:00
44  7:00 18:00
45  7:00 18:00
46  7:00 18:00
47  7:00 18:00
48  7:00 18:00
49  7:00 18:00
50  7:00 18:00
51  7:00 18:00
52  7:00 18:00
53  7:00 18:00
54  7:00 18:00
55  7:00 18:00
56  7:00 18:00
57  7:00 18:00
58  7:00 18:00
59  7:00 18:00
60  7:00 18:00
61  7:00 18:00
62  7:00 18:00
63  7:00 18:00
64  7:00 18:00
65  7:00 18:00
66  7:00 18:00
67  7:00 18:00
68  7:00 18:00
69  7:00 18:00
70  7:00 18:00
71  7:00 18:00
72  7:00 18:00
73  7:00 18:00
74  7:00 18:00
75  7:00 18:00
76  7:00 18:00
77  7:00 18:00
78  7:00 18:00
79  7:00 18:00
80  7:00 18:00
81  7:00 18:00
82  7:00 18:00
83  7:00 18:00
84  7:00 18:00
85  7:00 18:00
86  7:00 18:00
87  7:00 18:00
88  7:00 18:00
89  7:00 18:00
90  7:00 18:00
91  7:00 18:00
92  7:00 18:00
93  7:00 18:00
94  7:00 18:00
95  7:00 18:00
96  7:00 18:00
97  7:00 18:00
98  7:00 18:00
99  7:00 18:00
100  7:00 18:00
101  7:00 18:00
102  7:00 18:00
103  7:00 18:00
104  7:00 18:00
105  7:00 18:00
106  7:00 18:00
107  7:00 18:00
108  7:00 18:00
109  7:00 18:00
110  7:00 18:00
111  7:00 18:00
112  7:00 18:00
113  7:00 18:00
114  7:00 18:00
115  7:00 18:00
116  7:00 18:00
117  7:00 18:00
118  7:00 18:00
119  7:00 18:00
120  7:00 18:00
121  7:00 18:00
122  7:00 18:00
123  7:00 18:00
124  7:00 18:00
125  7:00 18:00
126  7:00 18:00
127  7:00 18:00
128  7:00 18:00
129  7:00 18:00
130  7:00 18:00
131  7:00 18:00
132  7:00 18:00
133  7:00 18:00
134  7:00 18:00
135  7:00 18:00
136  7:00 18:00
137  7:00 18:00
138  7:00 18:00
139  7:00 18:00
140  7:00 18:00
141  7:00 18:00
142  7:00 18:00
143  7:00 18:00
144  7:00 18:00
145  7:00 18:00
146  7:00 18:00
147  7:00 18:00
148  7:00 18:00
149  7:00 18:00
150  7:00 18:00
151  7:00 18:00
152  7:00 18:00
153  7:00 18:00
154  7:00 18:00
155  7:00 18:00
156  7:00 18:00
157  7:00 18:00
158  7:00 18:00
159  7:00 18:00
160  7:00 18:00
161  7:00 18:00
162  7:00 18:00
163  7:00 18:00
164  7:00 18:00
165  7:00 18:00
166  7:00 18:00
167  7:00 18:00
168  7:00 18:00
169  7:00 18:00
170  7:00 18:00
171  7:00 18:00
172  7:00 18:00
173  7:00 18:00
174  7:00 18:00
175  7:00 18:00
176  7:00 18:00
177  7:00 18:00
178  7:00 18:00
179  7:00 18:00
180  7:00 18:00
181  7:00 18:00
182  7:00 18:00
183  7:00 18:00
184  7:00 18:00
185  7:00 18:00
186  7:00 18:00
187  7:00 18:00
188  7:00 18:00
189  7:00 18:00
190  7:00 18:00
191  7:00 18:00
192  7:00 18:00
193  7:00 18:00
194  7:00 18:00
195  7:00 18:00
196  7:00 18:00
197  7:00 18:00
198  7:00 18:00
199  7:00 18:00
200  7:00 18:00
201  7:00 18:00
STANDTIME_SECTION
2 20
3 25
4 22
5 23
6 20
7 16
8 15
9 24
10 24
11 17
12 25
13 16
14 18
15 21
16 19
17 20
18 14
19 17
20 19
21 18
22 22
23 21
24 21
25 18
26 23
27 14
28 18
29 21
30 25
31 21
32 23
33 17
34 18
35 18
36 15
37 21
38 19
39 22
40 20
41 21
42 23
43 19
44 16
45 26
46 16
47 23
48 22
49 16
50 26
51 16
52 18
53 18
54 15
55 19
56 19
57 18
58 24
59 22
60 18
61 25
62 22
63 18
64 18
65 14
66 14
67 16
68 21
69 22
70 14
71 22
72 19
73 24
74 24
75 18
76 15
77 15
78 19
79 19
80 17
81 22
82 22
83 18
84 23
85 26
86 19
87 18
88 20
89 20
90 18
91 19
92 24
93 21
94 15
95 21
96 25
97 21
98 15
99 24
100 28
101 23
102 19
103 19
104 16
105 21
106 20
107 19
108 18
109 21
110 17
111 24
112 25
113 21
114 20
115 22
116 18
117 25
118 20
119 18
120 13
121 14
122 22
123 26
124 26
125 20
126 20
127 16
128 19
129 16
130 23
131 23
132 17
133 25
134 18
135 19
136 14
137 17
138 23
139 19
140 23
141 21
142 20
143 21
144 17
145 16
146 24
147 25
148 19
149 27
150 21
151 14
152 19
153 19
154 21
155 18
156 20
157 15
158 21
159 19
160 14
161 19
162 20
163 24
164 16
165 23
166 18
167 20
168 20
169 24
170 20
171 20
172 21
173 20
174 25
175 20
176 18
177 23
178 22
179 17
180 20
181 20
182 22
183 21
184 19
185 20
186 21
187 21
188 14
189 24
190 19
191 19
192 13
193 22
194 18
195 23
196 20
197 23
198 21
199 15
200 18
201 28
DEPOT_SECTION
1
-1
EOF
